unsat
(define-fun inv ((s Int) (i Int) (n Int)) Bool (and (or (not (>= (+ i (* (- 1) n)) 1)) (= s n) (= s 0)) (= s (+ (- 1) i))))
0.30user 0.00system 0:00.31elapsed 99%CPU (0avgtext+0avgdata 30644maxresident)k
8inputs+8outputs (0major+2377minor)pagefaults 0swaps
